language ESSENCE' 1.0
letting lastdx=105
letting cage be [
[6,1,3,0,0, 0,0, 0,0, 0,0],
[15,10,12,9,12,9,13,0,0, 0,0],
[55,7,14,8,14,8,15,8,16,7,16],
[28,13,16,14,16,15,16,0,0, 0,0],
[36,7,3,8,3,9,3,9,4,0,0],
[3,16,1,0,0, 0,0, 0,0, 0,0],
[23,3,14,3,15,3,16,0,0, 0,0],
[53,13,4,13,3,13,2,14,2,0,0],
[15,4,8,0,0, 0,0, 0,0, 0,0],
[11,5,9,0,0, 0,0, 0,0, 0,0],
[35,6,11,6,10,7,10,8,10,0,0],
[15,8,5,0,0, 0,0, 0,0, 0,0],
[14,9,1,0,0, 0,0, 0,0, 0,0],
[25,16,10,15,10,0,0, 0,0, 0,0],
[8,1,13,0,0, 0,0, 0,0, 0,0],
[17,14,7,15,7,0,0, 0,0, 0,0],
[31,5,12,5,11,0,0, 0,0, 0,0],
[14,2,2,0,0, 0,0, 0,0, 0,0],
[2,4,16,0,0, 0,0, 0,0, 0,0],
[17,9,10,10,10,0,0, 0,0, 0,0],
[9,7,6,0,0, 0,0, 0,0, 0,0],
[28,5,15,6,15,7,15,0,0, 0,0],
[6,16,4,0,0, 0,0, 0,0, 0,0],
[6,13,15,0,0, 0,0, 0,0, 0,0],
[6,11,9,0,0, 0,0, 0,0, 0,0],
[5,5,8,0,0, 0,0, 0,0, 0,0],
[2,12,8,0,0, 0,0, 0,0, 0,0],
[33,4,15,4,14,5,14,5,13,4,13],
[15,11,11,0,0, 0,0, 0,0, 0,0],
[12,11,2,0,0, 0,0, 0,0, 0,0],
[10,13,12,13,13,0,0, 0,0, 0,0],
[18,3,12,3,11,0,0, 0,0, 0,0],
[26,8,12,7,12,7,11,8,11,0,0],
[28,6,3,6,2,6,1,5,1,0,0],
[5,3,2,0,0, 0,0, 0,0, 0,0],
[1,2,8,0,0, 0,0, 0,0, 0,0],
[15,8,7,8,6,9,6,0,0, 0,0],
[9,10,16,0,0, 0,0, 0,0, 0,0],
[18,5,16,6,16,0,0, 0,0, 0,0],
[1,11,16,0,0, 0,0, 0,0, 0,0],
[28,4,3,5,3,5,2,0,0, 0,0],
[19,7,4,8,4,0,0, 0,0, 0,0],
[36,3,3,3,4,3,5,4,5,4,4],
[11,5,6,6,6,0,0, 0,0, 0,0],
[6,10,2,0,0, 0,0, 0,0, 0,0],
[38,14,3,14,4,15,4,15,5,15,6],
[13,9,9,0,0, 0,0, 0,0, 0,0],
[4,1,7,0,0, 0,0, 0,0, 0,0],
[18,16,5,16,6,0,0, 0,0, 0,0],
[2,14,15,0,0, 0,0, 0,0, 0,0],
[38,11,4,10,4,10,3,11,3,0,0],
[31,6,14,6,13,6,12,0,0, 0,0],
[17,11,8,11,7,0,0, 0,0, 0,0],
[55,1,4,1,5,1,6,2,6,3,6],
[3,13,9,0,0, 0,0, 0,0, 0,0],
[14,11,15,0,0, 0,0, 0,0, 0,0],
[10,1,12,0,0, 0,0, 0,0, 0,0],
[19,10,8,10,9,9,8,0,0, 0,0],
[4,4,12,0,0, 0,0, 0,0, 0,0],
[35,15,15,15,14,16,14,16,13,0,0],
[39,8,9,7,9,6,9,6,8,6,7],
[13,2,12,0,0, 0,0, 0,0, 0,0],
[9,12,3,0,0, 0,0, 0,0, 0,0],
[34,2,16,2,15,1,15,1,16,0,0],
[7,14,8,0,0, 0,0, 0,0, 0,0],
[33,13,7,13,8,13,6,14,6,14,5],
[13,9,15,9,16,0,0, 0,0, 0,0],
[53,4,6,4,7,5,7,3,7,2,7],
[14,16,3,15,3,0,0, 0,0, 0,0],
[35,12,2,12,1,13,1,0,0, 0,0],
[11,12,14,11,14,0,0, 0,0, 0,0],
[31,15,9,14,9,0,0, 0,0, 0,0],
[6,9,7,0,0, 0,0, 0,0, 0,0],
[37,13,5,12,5,12,4,12,6,12,7],
[28,1,11,2,11,2,10,2,9,0,0],
[21,4,10,4,11,5,10,0,0, 0,0],
[24,14,14,13,14,0,0, 0,0, 0,0],
[20,16,15,16,16,0,0, 0,0, 0,0],
[45,10,15,10,14,9,14,10,13,0,0],
[13,11,6,0,0, 0,0, 0,0, 0,0],
[14,1,1,1,2,0,0, 0,0, 0,0],
[3,1,8,0,0, 0,0, 0,0, 0,0],
[19,1,9,1,10,0,0, 0,0, 0,0],
[45,1,14,2,14,2,13,3,13,0,0],
[37,2,1,3,1,4,1,4,2,0,0],
[11,2,3,0,0, 0,0, 0,0, 0,0],
[10,2,4,2,5,0,0, 0,0, 0,0],
[30,3,8,3,9,3,10,4,9,0,0],
[2,7,1,0,0, 0,0, 0,0, 0,0],
[34,7,2,8,2,8,1,9,2,0,0],
[29,7,7,7,8,8,8,0,0, 0,0],
[7,7,13,8,13,0,0, 0,0, 0,0],
[51,9,5,10,5,11,5,10,6,10,7],
[19,9,11,10,11,0,0, 0,0, 0,0],
[15,10,1,11,1,0,0, 0,0, 0,0],
[35,11,10,12,10,12,9,13,10,0,0],
[11,11,12,0,0, 0,0, 0,0, 0,0],
[23,11,13,12,13,0,0, 0,0, 0,0],
[9,12,15,12,16,0,0, 0,0, 0,0],
[9,14,1,0,0, 0,0, 0,0, 0,0],
[6,14,12,0,0, 0,0, 0,0, 0,0],
[15,14,13,0,0, 0,0, 0,0, 0,0],
[12,15,1,15,2,16,2,0,0, 0,0],
[14,15,8,0,0, 0,0, 0,0, 0,0],
[14,15,11,16,11,0,0, 0,0, 0,0],
[40,16,7,16,8,16,9,0,0, 0,0]
]
